0 97 
1 98 
2 100 
3 101 
4 101 
5 101 
6 103 
7 102 
8 101 
9 100 
10 99 
11 97 
12 98 
13 97 
14 97 
15 100 
16 98 
17 96 
18 94 
19 93 
20 91 
21 90 
22 90 
23 88 
24 86 
25 87 
26 87 
27 90 
28 92 
29 92 
30 91 
31 90 
32 89 
33 88 
34 87 
35 85 
36 83 
37 83 
38 82 
39 81 
40 79 
41 78 
42 76 
43 75 
44 76 
45 75 
46 74 
47 73 
48 72 
49 68 
50 67 
51 66 
52 65 
53 64 
54 62 
55 60 
56 59 
57 59 
58 58 
59 57 
60 56 
61 54 
62 53 
63 51 
64 49 
65 48 
66 46 
67 43 
68 47 
69 47 
70 47 
71 46 
72 45 
73 44 
74 42 
75 42 
76 40 
77 37 
78 36 
79 34 
80 32 
81 31 
82 30 
83 27 
84 23 
85 22 
86 23 
87 23 
88 22 
89 21 
90 19 
91 20 
92 20 
93 20 
94 19 
95 18 
96 17 
97 15 
98 16 
99 15 
100 14 
101 13 
102 12 
103 11 
104 10 
105 9 
106 8 
107 7 
108 4 
109 3 
110 2 
111 0 
112 0 

